
Gurobi 6.5.2 (linux64) logging started Wed Aug 31 10:35:25 2016

Optimize a model with 21 rows, 33 columns and 79 nonzeros
Coefficient statistics:
  Matrix range    [1e+00, 2e+00]
  Objective range [8e+00, 9e+01]
  Bounds range    [1e+00, 1e+00]
  RHS range       [1e+00, 1e+00]
Found heuristic solution: objective 496
Presolve removed 7 rows and 3 columns
Presolve time: 0.00s
Presolved: 14 rows, 30 columns, 64 nonzeros
Variable types: 0 continuous, 30 integer (30 binary)

Root relaxation: objective 3.980000e+02, 17 iterations, 0.00 seconds

    Nodes    |    Current Node    |     Objective Bounds      |     Work
 Expl Unexpl |  Obj  Depth IntInf | Incumbent    BestBd   Gap | It/Node Time

*    0     0               0     398.0000000  398.00000  0.00%     -    0s

Explored 0 nodes (17 simplex iterations) in 0.00 seconds
Thread count was 8 (of 8 available processors)

Optimal solution found (tolerance 1.00e-04)
Best objective 3.980000000000e+02, best bound 3.980000000000e+02, gap 0.0%
